NAME: tsp_134
COMMENT: Random TSP instance
TYPE: TSP
DIMENSION: 50
EDGE_WEIGHT_TYPE: EUC_2D
NODE_COORD_SECTION
1 486 691
2 847 3
3 22 86
4 942 379
5 613 257
6 295 239
7 369 17
8 37 979
9 932 463
10 391 604
11 726 344
12 209 754
13 615 978
14 847 532
15 117 171
16 53 87
17 237 214
18 33 184
19 401 308
20 725 71
21 364 594
22 15 619
23 159 144
24 698 366
25 388 837
26 848 922
27 260 471
28 860 242
29 467 368
30 534 333
31 768 153
32 488 561
33 528 489
34 375 708
35 599 787
36 851 276
37 314 602
38 137 226
39 463 238
40 27 654
41 374 291
42 615 163
43 321 34
44 111 157
45 398 885
46 666 172
47 71 887
48 64 881
49 885 455
50 111 137
